(set-info :smt-lib-version 2.6)
(set-logic QF_S)
(set-info :source |
Generated by: Shaoke Cui
Generated on: 2025-04-10
Application: Using String Solvers to solve string matching problems
Target solver: Z3, Z3alpha, Z3-noodler
Benchmarks for string matching problem with wildcards, which needs to determine whether two strings containing two wildcards can match.
Use re.allchar and (re.* re.allchar) to represent wildcards.
Determine whether the two strings match by judging whether the result of re.inter is re.none.
|)
(set-info :license "https://creativecommons.org/licenses/by/4.0/")
(set-info :category "crafted")
(set-info :status unknown)
(assert (= re.none (re.inter  (re.++ (str.to_re "cfuucbho") (re.* re.allchar) (str.to_re "bbdalfoqjem") re.allchar re.allchar (str.to_re "xe") (re.* re.allchar) (str.to_re "votkcalmtojwvmx") (re.* re.allchar) (str.to_re "iq") (re.* re.allchar) (str.to_re "u") re.allchar (str.to_re "ajsyxkapq") (re.* re.allchar) (str.to_re "brle") (re.* re.allchar) (str.to_re "fcljjtucd") re.allchar (str.to_re "duq") (re.* re.allchar) (str.to_re "fzuuluickfshavlobjctn") re.allchar (str.to_re "eehqilxzdczjjzdicnlmvxxrgpmsmt") re.allchar (str.to_re "cnelywb") (re.* re.allchar) (str.to_re "eo") re.allchar (str.to_re "t") (re.* re.allchar) (str.to_re "jlpnlopnmgljvf") re.allchar (str.to_re "zyjbucgdbyjjr") (re.* re.allchar) (str.to_re "ofhxf") (re.* re.allchar) (str.to_re "iipr") (re.* re.allchar) (str.to_re "a") re.allchar (str.to_re "g") (re.* re.allchar) (str.to_re "zngdl") re.allchar (str.to_re "yebuvjtwresltogiju") (re.* re.allchar) (str.to_re "dgjbdhg") re.allchar (str.to_re "onlssdwdcgkrbiiwhcfptpfguvvoox") (re.* re.allchar) (str.to_re "dvvfoylxsktfwdjeqwtp") re.allchar (str.to_re "rnzudyozsabh") (re.* re.allchar) (str.to_re "bzpiupppbcjbogboldaftp") (re.* re.allchar) (str.to_re "zxgmkyy") re.allchar (str.to_re "yaaofucjyjhyo") (re.* re.allchar) (str.to_re "eipiquwqgdp") (re.* re.allchar) re.allchar (str.to_re "x") (re.* re.allchar) (str.to_re "y") (re.* re.allchar) (str.to_re "awrbvwcicaelovnegaynlietqjabubiwlu") re.allchar (str.to_re "dobwjhik") re.allchar (re.* re.allchar) (str.to_re "brcvqszyrsrwnm") re.allchar (str.to_re "ibau") re.allchar (str.to_re "ugsmzpjqzv") (re.* re.allchar) (str.to_re "pnpqoqikjjiswyavfxxiivzkkty") (re.* re.allchar) (str.to_re "syzjvnlauqgrcfqzoucohbkgjms") re.allchar (str.to_re "cjzudizzxn") re.allchar (str.to_re "iqgrnk") re.allchar (str.to_re "upatwuudqaxsqxazatdllgvveqomscdrlkpqqoamoktrtq") re.allchar (str.to_re "d") (re.* re.allchar) (str.to_re "rivl") (re.* re.allchar) (str.to_re "kmj") re.allchar (str.to_re "hf") re.allchar (str.to_re "stcav") re.allchar (str.to_re "pedvuap") re.allchar re.allchar (str.to_re "bhpgldjyfp") (re.* re.allchar) (str.to_re "lebjxhublgwicwxn") (re.* re.allchar) (str.to_re "jaozoz") re.allchar (str.to_re "okdmudqvilaxgrxgwdldlb") re.allchar (str.to_re "nqd") re.allchar (str.to_re "gzvzmqmtcnwtzapdhrttwizsfloitarmiqpnjnrgfwaocipojbnlzj") (re.* re.allchar) (str.to_re "d") re.allchar (str.to_re "cypg") re.allchar (str.to_re "aryxsqataptjuyjoxq") re.allchar (str.to_re "cioefalsp") re.allchar (str.to_re "fodzry") re.allchar (str.to_re "icec") re.allchar (str.to_re "jsptbh") re.allchar (str.to_re "nqzjchwx") (re.* re.allchar) (str.to_re "svuvukuxxstsqamqflnggdkll") re.allchar (str.to_re "fout") re.allchar (str.to_re "gwn") (re.* re.allchar) (str.to_re "sjocgjkzyig") (re.* re.allchar) (str.to_re "sujte") (re.* re.allchar) (str.to_re "wij") re.allchar (str.to_re "ztcnepgyqau") (re.* re.allchar) (str.to_re "swmahodjpkbfuxuqnsazctsfofdpmerokdozyhfldq") (re.* re.allchar) (str.to_re "kwclmsfzrsacxqeybh") re.allchar (str.to_re "wprywsydkelcovnqfavnkrvgbkfsoccptqofkqvpkcuwcjr") (re.* re.allchar) (str.to_re "upgbonjwwkwvakptwfxpfq") re.allchar (str.to_re "ncjl") (re.* re.allchar) (str.to_re "svtcmffzpjgomykaiysqbnuijlpvtd") (re.* re.allchar) (re.* re.allchar) (str.to_re "mruq") (re.* re.allchar) (str.to_re "b") re.allchar (str.to_re "yhpnpyjedytikw") re.allchar (str.to_re "ewpmjjhosgimeleyowbnt") (re.* re.allchar) (str.to_re "epcopaxvsksbe") (re.* re.allchar) (str.to_re "ts") (re.* re.allchar) (str.to_re "fvki") re.allchar (str.to_re "yi") re.allchar (str.to_re "nvhtrejekjbvl") re.allchar (str.to_re "hppkndcd") re.allchar (str.to_re "xycgstewqaahvpbznowcscibaqsk") re.allchar (str.to_re "hoow") re.allchar (str.to_re "qajlvfqyajapmrqywyaehjojsivpmsfeqyymyhnzcmmlsurtbevja") re.allchar (str.to_re "usfrflwxdk") (re.* re.allchar) (str.to_re "norfk") (re.* re.allchar) (str.to_re "vyhelmweixwnzwkovemiybsu") re.allchar (str.to_re "w") re.allchar (str.to_re "obp") re.allchar (str.to_re "gvrnvcwhuodxv") re.allchar (str.to_re "c") (re.* re.allchar) (str.to_re "wqolulz") re.allchar (str.to_re "fytecktqicsfdcu") (re.* re.allchar) (str.to_re "bnzrhiy") (re.* re.allchar) (str.to_re "wwylgmiqdrisfyitn") (re.* re.allchar) (str.to_re "qsbaouesfwfalbpxy") re.allchar (str.to_re "htjuxkbdnghtoawgkogjfvmcbtqqzfzpiyssqftvljduwvkbbmooksvbivsihkgnyr") (re.* re.allchar) (str.to_re "bkpkjciytouiiyuguwjjfswociv") re.allchar (str.to_re "d") (re.* re.allchar) (str.to_re "kmiozqeofadddzjjofurldkry") re.allchar (str.to_re "okxpvnhqlt") re.allchar (str.to_re "aerpndyegiczevgqbdtkbfr") re.allchar (str.to_re "umfumtddkiaxzqhwfplckfex") (re.* re.allchar) (str.to_re "qr") (re.* re.allchar) (str.to_re "xzhiwjlaoclzjjsguibppuykjsbslms") (re.* re.allchar) (str.to_re "lxzvqryylil") re.allchar (str.to_re "vqaavlilvrbilnitmefuicpvaw") (re.* re.allchar) (str.to_re "kbbfg") re.allchar (str.to_re "gonunonabikswxofxkf") re.allchar (str.to_re "mlfkotnxlajk") (re.* re.allchar) (str.to_re "r") (re.* re.allchar) (str.to_re "kqefmwfrsgiyefa") (re.* re.allchar) (str.to_re "cezkqzhbmrqopxjyujm") re.allchar (str.to_re "w") re.allchar (str.to_re "kmwhkhowihwobtjwdpcgozwwsazjnpsacolzubszbcm") re.allchar (re.* re.allchar) (str.to_re "aolxf") re.allchar (str.to_re "iatadilgpjkotbmk") (re.* re.allchar) (str.to_re "fkf") re.allchar (str.to_re "vsukbxkwcznrrwdbsnwgi") re.allchar (str.to_re "xfrkyzrrgmzixbarjt") re.allchar (str.to_re "eqpbtrharifvxpzwmecaxb") (re.* re.allchar) (str.to_re "v") (re.* re.allchar) (str.to_re "tfwcuqpgaryaufbdlv") re.allchar (str.to_re "biyqhbnwjp") (re.* re.allchar) (str.to_re "sdvfaxnhuhpg") (re.* re.allchar) (str.to_re "lnl") re.allchar (str.to_re "etnezqyzzranpajnki") (re.* re.allchar) (str.to_re "psgylogmksnfypyouwcp") re.allchar (str.to_re "kecnrjjedaiazojjmvkokudayxdptnntnuqnporpqgdseobvkawaz") (re.* re.allchar) (str.to_re "dnthggctlgygrphmrfdmxb") re.allchar (str.to_re "wptlprk") re.allchar re.allchar (str.to_re "mjbllljpla") (re.* re.allchar) (str.to_re "aynlst") re.allchar (str.to_re "hfumecnwgv") re.allchar (str.to_re "cczamfihng") (re.* re.allchar) (str.to_re "rltfbqiqd") re.allchar (str.to_re "prd") (re.* re.allchar) (str.to_re "aabjhojifkurvcxmxbijrsgepxkrzrkpslwigxnbvkfetvxfu") re.allchar re.allchar (str.to_re "mdmubmezd") re.allchar (str.to_re "ialrx") (re.* re.allchar) (str.to_re "ejowy") re.allchar (str.to_re "poqzmbdhyu") re.allchar (str.to_re "ydfjnnhfzadamn") re.allchar (re.* re.allchar) (str.to_re "anhntxzwlvkjzfx") re.allchar (str.to_re "pc") (re.* re.allchar) (str.to_re "fzcw") re.allchar (str.to_re "rqw") (re.* re.allchar) (str.to_re "hynfnoxnplrv") re.allchar (str.to_re "re") re.allchar (str.to_re "wuswzlu") re.allchar (str.to_re "px") re.allchar (str.to_re "sblzjedlekfabxufwgbgint") re.allchar (str.to_re "ukafmfoxaxyduytftyww") re.allchar (str.to_re "itxrwkvvbiuwmrdbbxj") (re.* re.allchar) (str.to_re "hrtuaglyvdtm") (re.* re.allchar) (str.to_re "spmjhda") re.allchar (str.to_re "omwn") (re.* re.allchar) (str.to_re "appz") (re.* re.allchar) (str.to_re "tbjaoqqntm") (re.* re.allchar) (str.to_re "rn") re.allchar (str.to_re "adywofajbgu") (re.* re.allchar) (str.to_re "oxdg") re.allchar (str.to_re "ijkg") re.allchar (str.to_re "qxoztejgjtldmsqycl") (re.* re.allchar) (str.to_re "qfqsvaazaw") re.allchar (str.to_re "dwl") (re.* re.allchar) (str.to_re "nmy") re.allchar (str.to_re "atpqjcy") re.allchar (str.to_re "k") (re.* re.allchar) (str.to_re "mqoicuswirgq") re.allchar (str.to_re "a") (re.* re.allchar) (re.* re.allchar) (str.to_re "tbzciyvwo") (re.* re.allchar) (str.to_re "d") (re.* re.allchar) (str.to_re "rbk") (re.* re.allchar) (str.to_re "ozdhacjkrcgpdvixb") (re.* re.allchar) (str.to_re "divexjylnymg") (re.* re.allchar) (str.to_re "dqykwdzvzediugkenlllljr") re.allchar (str.to_re "ayfb") re.allchar (str.to_re "ulmqvoaowikmtqkllsj") (re.* re.allchar) (str.to_re "owmbekuicawevr") re.allchar (str.to_re "eahojqzszxnqspczmwenmxcfwqphuod") re.allchar (str.to_re "xufodfeqrcenkvbjjgkqaewpquykgutu") (re.* re.allchar) (str.to_re "brzzflynlhpfhejv") (re.* re.allchar) (str.to_re "vnsnzxphoxpbitvkfgblrstezlsrpm") (re.* re.allchar) (re.* re.allchar) (str.to_re "vkctdntbrotqgjsjuitcgfpan") (re.* re.allchar) (str.to_re "g") (re.* re.allchar) (str.to_re "lftawthxpmamfiidxbt") re.allchar (str.to_re "gjwxwiulkiv") (re.* re.allchar) (re.* re.allchar) (re.* re.allchar) (str.to_re "vmfdrknjqzcm") re.allchar (str.to_re "neudllzqsaqrhbfhateyxxixctwrshhmha") (re.* re.allchar) (str.to_re "afrnm") (re.* re.allchar) (str.to_re "tpbwrulpnrulxuhu") (re.* re.allchar) (str.to_re "onfpervkzkhnmiyxit") (re.* re.allchar) (str.to_re "ztzcynydj") re.allchar (str.to_re "jppuicft") re.allchar (str.to_re "agutzocueorukcofpna") re.allchar (str.to_re "apdmwiylwnxqisuvfcmjc") (re.* re.allchar) (str.to_re "pdhksdyuelcghnivce") re.allchar (str.to_re "msdltbvkilxklnujoxpdzutp") (re.* re.allchar) (str.to_re "rfujczvfdatkoizvtlfncnqribd") (re.* re.allchar) (str.to_re "wq") re.allchar (str.to_re "crm") re.allchar (re.* re.allchar) (str.to_re "uyugwiijucljvj") (re.* re.allchar) (str.to_re "bfqlrzknkimwgrfnpixghvjzkzzzjgkbudwgmlayphhrmtckpsiquj") (re.* re.allchar) (str.to_re "cczrypaztjevdabbfgpomtrnradhocuhqi") (re.* re.allchar) (str.to_re "vgmeeggoviszaxxtehrqebjg") re.allchar (str.to_re "wuiebdsjkbhzrhicqkopsszogmjhjqmsxifbol") (re.* re.allchar) (str.to_re "zvjwxlkauzeakysesruauwpthjwepikdakltiywrhipjtmfxatqsnjf") (re.* re.allchar) (str.to_re "qgpcyocrifoh") (re.* re.allchar) (str.to_re "kwndbsbawhbuuk") re.allchar (str.to_re "dmqxfvhxhuqsupfltaqjvq") (re.* re.allchar) (str.to_re "rhnom") (re.* re.allchar) (str.to_re "hcqoacunmwz") re.allchar (str.to_re "egymloatkbjnjudylin") re.allchar (str.to_re "rvagsjdueytro") (re.* re.allchar) (str.to_re "k") (re.* re.allchar) (str.to_re "rykl") (re.* re.allchar) (str.to_re "swccsjnfjafzltt") (re.* re.allchar) (str.to_re "cubbaahlb") (re.* re.allchar) (str.to_re "xl") re.allchar (str.to_re "mjun") re.allchar (str.to_re "qrilksjzjvichfmii") re.allchar (str.to_re "ts") (re.* re.allchar) (str.to_re "ybvexkf") re.allchar re.allchar (str.to_re "uralqbkwjmsxfczbdkqhyhbhcpovnuyvlhw") (re.* re.allchar) (str.to_re "l") re.allchar (str.to_re "muupgixvmkoizau") (re.* re.allchar) (str.to_re "kwmvewjuqfmgdboasjsicloilhsuhmcgkrojqtbmhb") (re.* re.allchar) (str.to_re "ronxzinbjyvgxfowbkgv") re.allchar (str.to_re "agmhhgdikbst") (re.* re.allchar) (str.to_re "uhkguprsssdritvpejjbnxamgctypxsvulnyqbbyibbncm") re.allchar (str.to_re "sgex") re.allchar (str.to_re "lmxdtnpsiamahgbpqajcdvdcfozfxm") (re.* re.allchar) (str.to_re "j") re.allchar (str.to_re "lsmjwwavp") re.allchar (str.to_re "corfmkirchydhxfmjbsl") (re.* re.allchar) (re.* re.allchar) (str.to_re "g") (re.* re.allchar) (str.to_re "yrvjxpnghvzlzzbxfra") (re.* re.allchar) (str.to_re "fuarxttgzghauzxizkauu") re.allchar (str.to_re "w") re.allchar (str.to_re "qyi") re.allchar (str.to_re "xzws") (re.* re.allchar) (str.to_re "mdnv") re.allchar (str.to_re "rfzfzbftfnsjwmxgveqngkotzrrhlavepid") (re.* re.allchar) (re.* re.allchar) (str.to_re "dbpgv") (re.* re.allchar) (str.to_re "mfwywhjchnibjf") (re.* re.allchar) (str.to_re "slkalunl") (re.* re.allchar) (str.to_re "yf") (re.* re.allchar) (str.to_re "fdsfoqx") re.allchar (str.to_re "ett") re.allchar (str.to_re "x") re.allchar re.allchar (str.to_re "ffsovyirhyjoplquegymrphz") (re.* re.allchar) (str.to_re "cl") (re.* re.allchar) (str.to_re "omszkpodukdrn") re.allchar (str.to_re "ngvp") (re.* re.allchar) (str.to_re "xwhmjtv") (re.* re.allchar) (re.* re.allchar) (str.to_re "eyl") (re.* re.allchar) (str.to_re "ltudd") re.allchar (str.to_re "fnfefxmwzpwsrrcw") re.allchar (str.to_re "zdlncwdqyxkunfhrstcu") re.allchar (str.to_re "xjhktqowfwqlzfveslhkogydadcftp") (re.* re.allchar) (str.to_re "pdlfhppuabuncrdcopnzluanmffix") (re.* re.allchar) (str.to_re "huekrkfkncygus") (re.* re.allchar) (str.to_re "asn") re.allchar (str.to_re "daglkgdcrucouvyqmo") re.allchar (str.to_re "hcftrgsyznlhfvedlvzxuc") (re.* re.allchar) (str.to_re "qdqjfcibvopgnqjzhlycw") re.allchar (str.to_re "nylspgvpb") (re.* re.allchar) (str.to_re "lfodokuibbnhrpbuhttzhbylexdxm") (re.* re.allchar) (str.to_re "gxoidchgbeftlvujymoqigdpgnquvaap") (re.* re.allchar) (str.to_re "hecfvzzczcujuigpdd") (re.* re.allchar) (str.to_re "tryeowzsithdv") (re.* re.allchar) (str.to_re "ukiflhnrzzx") re.allchar (str.to_re "bpxeqaiyltygyrtchxesuahpxledxrownwpwynxhqrhtmpxwbwtzbyycvowfb") (re.* re.allchar) (str.to_re "tkrq") re.allchar (str.to_re "qbvjrmkywhwneleurmtg") (re.* re.allchar) (str.to_re "vzjexeuyqbzyurjvrfnxd") (re.* re.allchar) (str.to_re "alsjiqtlqscpvmajfhxcwq") (re.* re.allchar) (str.to_re "jts") (re.* re.allchar) (str.to_re "zptrxbo") re.allchar (str.to_re "iosz") re.allchar (str.to_re "zuxdudnjbqcno") (re.* re.allchar) (str.to_re "rmvjnlv") )   (re.++ (str.to_re "rqytapqswnevz") (re.* re.allchar) (str.to_re "c") (re.* re.allchar) (str.to_re "c") (re.* re.allchar) (str.to_re "y") re.allchar (str.to_re "esgcmbhy") (re.* re.allchar) (str.to_re "yqhnqlvcv") (re.* re.allchar) (str.to_re "ehxgg") re.allchar (str.to_re "xth") re.allchar (str.to_re "bzxy") re.allchar (str.to_re "hlcetecxormxrbevxlozidbopqzyllgnnnwk") re.allchar (str.to_re "jkwjyrmfuwlnylznrhuhidk") re.allchar (str.to_re "tmy") (re.* re.allchar) (str.to_re "aokteqfqyzfjbvqkkacgwbchmvbexrzjeincuhebbtkghoraj") re.allchar (str.to_re "pebxjvuonbknaggj") re.allchar (str.to_re "kclkjhnwmuzjowumh") (re.* re.allchar) (str.to_re "wjztfogfuwadeyvjfdrwemnldmbaxhadyhbaujddqcpxuzkhrq") (re.* re.allchar) (re.* re.allchar) (str.to_re "ntkgdfcojkof") (re.* re.allchar) (str.to_re "vu") (re.* re.allchar) (str.to_re "boqfmdglgmb") re.allchar (str.to_re "lmosmwhsaubjobqowlfwln") (re.* re.allchar) (str.to_re "fbwrtntibbsooourdywywqzt") (re.* re.allchar) (str.to_re "gqeqboijfsrwugzspbb") re.allchar (str.to_re "n") re.allchar (str.to_re "tcqxvlrzodbujbgbrcylftdqk") re.allchar (str.to_re "ugpvpgf") re.allchar (str.to_re "yado") re.allchar (str.to_re "ipjpliwdiarvtzcopiwrdbogosz") re.allchar (str.to_re "zvyoglqoovk") re.allchar (str.to_re "iycuvaiqszdsen") re.allchar (str.to_re "wxewdis") (re.* re.allchar) (str.to_re "ufkn") (re.* re.allchar) (str.to_re "eat") re.allchar (str.to_re "sxuvw") (re.* re.allchar) (str.to_re "hcnqctjugdma") re.allchar (str.to_re "xdwar") (re.* re.allchar) (str.to_re "au") re.allchar (str.to_re "emrwtvlztowcnbrjwtdndg") re.allchar (str.to_re "fzzcntcwqh") re.allchar (str.to_re "qvrkgkowvbtzxg") re.allchar (str.to_re "i") (re.* re.allchar) (str.to_re "ppwitbyvrqhaliyud") re.allchar (str.to_re "xcm") re.allchar (str.to_re "iin") (re.* re.allchar) (str.to_re "tlwklcypfzvntebbfrv") re.allchar (re.* re.allchar) (str.to_re "ljuykhwertjhnguzpcnp") re.allchar (str.to_re "hyntgozwtip") (re.* re.allchar) (str.to_re "c") re.allchar (str.to_re "xqacymuqvipuaybgkkvrgutykcjdndwvovuc") re.allchar (str.to_re "agfdia") re.allchar re.allchar (str.to_re "jdavzfltfupdrqg") (re.* re.allchar) (str.to_re "lqauxtnvpnvk") (re.* re.allchar) (str.to_re "uniyjdmfmnrgimo") re.allchar (str.to_re "lekbyhiqzhnvdswtqitqdcjzwtwcxymfmgaprthuzxvqgdhfaonqxfykj") (re.* re.allchar) (str.to_re "zhxubvbxyhrejbeke") (re.* re.allchar) (str.to_re "kozefgbjxggtcbzaotegasyiyimeajc") re.allchar (str.to_re "xdewdg") re.allchar (str.to_re "lunhjylssg") (re.* re.allchar) (str.to_re "ilcllqonxquqetvtreupybcffisc") (re.* re.allchar) (str.to_re "bwxctx") (re.* re.allchar) (str.to_re "fdidzcapmnavcelwqcs") re.allchar (str.to_re "nl") (re.* re.allchar) (str.to_re "sh") re.allchar (str.to_re "eqbdvapg") re.allchar (str.to_re "wfegjkgyn") re.allchar (str.to_re "mwmadn") (re.* re.allchar) (str.to_re "t") (re.* re.allchar) (str.to_re "dduln") re.allchar (str.to_re "tikirqryawttqkauwiuljujcoxjwmy") (re.* re.allchar) (str.to_re "vgnvdgxoq") re.allchar (str.to_re "n") (re.* re.allchar) (str.to_re "qixnzjkzdai") (re.* re.allchar) (str.to_re "slcgpbgaqmlqkhixjxrfunraq") (re.* re.allchar) (str.to_re "t") re.allchar (str.to_re "zzrsi") re.allchar (str.to_re "w") re.allchar (str.to_re "qaxtxwg") (re.* re.allchar) (str.to_re "dsqtqbr") re.allchar (str.to_re "sv") (re.* re.allchar) (str.to_re "xlmrwectrfjoemsqwvtwj") (re.* re.allchar) (str.to_re "ejleljdvcwkdo") (re.* re.allchar) (str.to_re "dabvedlmuju") re.allchar (str.to_re "wazd") (re.* re.allchar) (str.to_re "j") (re.* re.allchar) (str.to_re "joqlfvkpyms") (re.* re.allchar) re.allchar re.allchar (str.to_re "ecnvmkalidxncurnlq") re.allchar (str.to_re "jybwrecjgkwtofhrdrcoplwuuxbkzqve") re.allchar (str.to_re "zhcqdlpafqsadvayzsjrouyrij") (re.* re.allchar) (str.to_re "u") (re.* re.allchar) (str.to_re "bjd") re.allchar (str.to_re "wdqaywytivmetau") (re.* re.allchar) (str.to_re "jfifmviyetgrdvpzdnnicaxnzwgwgeeisixauquetnodyhhkngabjohp") re.allchar (str.to_re "srbzkhrmwlolsphnamcjfvxmigdttveljehzplwdvinnr") re.allchar (str.to_re "xxv") re.allchar (str.to_re "lscjlmmfjmbwqtcuwreavu") (re.* re.allchar) (str.to_re "kutr") (re.* re.allchar) (str.to_re "uwcwt") (re.* re.allchar) (str.to_re "qyinjdeivcqyxliqjkff") re.allchar (str.to_re "nwnjns") re.allchar (str.to_re "qvnmxqkvcxa") (re.* re.allchar) (str.to_re "ldrmdipespff") (re.* re.allchar) (str.to_re "gkbctjc") re.allchar (str.to_re "wtbiwakpypbehdricsrmlu") (re.* re.allchar) (str.to_re "ctughzxuubiazuupgds") re.allchar (str.to_re "ccaewqxkscmfmkoegaujnqcejb") (re.* re.allchar) (str.to_re "xy") re.allchar (str.to_re "hqy") (re.* re.allchar) (re.* re.allchar) (str.to_re "ytwnhjgdipkiunfjgpnbvyofkl") (re.* re.allchar) (str.to_re "ksyjouvipunroxj") re.allchar (str.to_re "kojbnrtaat") (re.* re.allchar) (str.to_re "tcipworne") re.allchar (str.to_re "iqvqh") re.allchar (str.to_re "lqsgkjyh") (re.* re.allchar) (str.to_re "x") re.allchar re.allchar (str.to_re "okebp") re.allchar (str.to_re "ulfgmeukzqlkqas") re.allchar (str.to_re "tlhgszihem") re.allchar (str.to_re "g") re.allchar (str.to_re "mvpmjbbluov") (re.* re.allchar) (str.to_re "rpotbcro") re.allchar (str.to_re "p") (re.* re.allchar) (str.to_re "qhbtxq") re.allchar (str.to_re "jg") (re.* re.allchar) (str.to_re "wbvejfx") re.allchar (str.to_re "qj") (re.* re.allchar) (str.to_re "zvpvllvkxrjckzpbfquzfpfktvdnjhfutgkgsnxvhmgonycunaszzjesjmqduv") (re.* re.allchar) (str.to_re "izcutygoimroidmivxccmryjhdpiqtuvrkwz") re.allchar (str.to_re "hcfdeqvruzgga") (re.* re.allchar) (str.to_re "hzrssivmjjugbjbxtfqbybmwayuqqfxvssdgnobuhcg") (re.* re.allchar) (str.to_re "rjtfkpvgiifonzjbhmdblkksmgaqlqpw") re.allchar (str.to_re "olemjokry") re.allchar (str.to_re "owg") re.allchar (re.* re.allchar) (re.* re.allchar) (str.to_re "rvjsxguupukskv") (re.* re.allchar) (str.to_re "ow") re.allchar re.allchar (str.to_re "hsrunlchfkkamookg") (re.* re.allchar) (str.to_re "a") re.allchar (str.to_re "jzi") (re.* re.allchar) re.allchar (str.to_re "idtx") (re.* re.allchar) (str.to_re "mlgeskn") re.allchar (str.to_re "ostm") re.allchar (re.* re.allchar) (str.to_re "cjachqj") re.allchar (str.to_re "svxtwxq") (re.* re.allchar) (str.to_re "zk") (re.* re.allchar) (str.to_re "bewgvba") re.allchar (str.to_re "lnwnhdefdkydvmeokvs") re.allchar (str.to_re "g") (re.* re.allchar) (str.to_re "ogahhvfvgrjdcnlajqrffmabxnz") re.allchar (str.to_re "trpjepxwwn") re.allchar (str.to_re "ujeabmquel") (re.* re.allchar) (str.to_re "xvrgnajxpyuroeibabibmi") (re.* re.allchar) (str.to_re "hkpukstfa") (re.* re.allchar) (str.to_re "xlliqnvistukhjbgpxjacqe") (re.* re.allchar) (str.to_re "y") (re.* re.allchar) (str.to_re "qb") (re.* re.allchar) (str.to_re "yvaghdaqpypmfiwawzfjcqtgdptdfhzna") re.allchar (str.to_re "jwcdozkshfpzwjtdh") (re.* re.allchar) (str.to_re "qliqudgsjhffwqdacwccsrc") re.allchar (str.to_re "wq") re.allchar (str.to_re "wmc") (re.* re.allchar) (str.to_re "xp") (re.* re.allchar) (str.to_re "riauthyxyl") (re.* re.allchar) (str.to_re "zk") re.allchar (str.to_re "xqmwksnbwbnxozcjn") (re.* re.allchar) (str.to_re "qwidmci") re.allchar (str.to_re "rcxn") (re.* re.allchar) (str.to_re "mutgyzyahxpsxdt") re.allchar (str.to_re "xacgzeowhwlo") re.allchar (str.to_re "piqnzlooiwmgrbdhpnry") re.allchar re.allchar (str.to_re "jzjqaypwftl") re.allchar (str.to_re "gmkmqmugtayootaaagj") re.allchar (str.to_re "gowzauzmjzmsxuttzihzwuzoepvurasndozrhum") (re.* re.allchar) (str.to_re "swwab") (re.* re.allchar) (str.to_re "pb") re.allchar (str.to_re "ijnfakbfrbcytzvhmhmoatogzkuxtwqxbwvhd") (re.* re.allchar) (str.to_re "xgqbtvmdrquagqptxerx") (re.* re.allchar) (str.to_re "egqckthuo") re.allchar (str.to_re "vipdttrq") re.allchar (str.to_re "paq") re.allchar (str.to_re "qprizlarqljlvfhi") re.allchar (str.to_re "f") (re.* re.allchar) (str.to_re "znu") (re.* re.allchar) re.allchar (str.to_re "knzvtvwnlbjwvz") re.allchar (str.to_re "slh") re.allchar (str.to_re "jhg") (re.* re.allchar) (str.to_re "nnasl") re.allchar (re.* re.allchar) (re.* re.allchar) (str.to_re "yazewehclaujytzqcxdjjnamycaypofqftjo") re.allchar (str.to_re "ovhnzdnhdzijrnzkwvbgz") re.allchar (str.to_re "kuaykfv") re.allchar (str.to_re "r") re.allchar (str.to_re "tonezp") (re.* re.allchar) (str.to_re "xtphiipmqgfixrsmyfch") (re.* re.allchar) (str.to_re "qo") re.allchar (str.to_re "ykktaihd") (re.* re.allchar) (str.to_re "yjqraye") (re.* re.allchar) (str.to_re "fspdphzpu") re.allchar re.allchar (str.to_re "qkxywcjxqn") (re.* re.allchar) (str.to_re "m") (re.* re.allchar) (str.to_re "qgcxpasnnasdmrvlnomoyw") (re.* re.allchar) (str.to_re "dmwkirlagopxsk") re.allchar (str.to_re "bmppvtjkbatbngjpaznqjcgswsgximbdpbjrimgjcubv") (re.* re.allchar) (str.to_re "dyufoccorgwepnsyzzqyjrewjusd") re.allchar (str.to_re "m") re.allchar (str.to_re "me") re.allchar (str.to_re "vqmkzyayhqdckryxrgdcm") (re.* re.allchar) (str.to_re "schgv") (re.* re.allchar) (re.* re.allchar) (str.to_re "elbbkteckkmwxetlpymexdrip") re.allchar (str.to_re "mfvlcvclzhfnoxjwkzxwk") re.allchar (str.to_re "hthfpktse") (re.* re.allchar) (str.to_re "uodaqp") (re.* re.allchar) (str.to_re "nasq") re.allchar (str.to_re "qywtk") re.allchar (str.to_re "rkuspulw") (re.* re.allchar) (str.to_re "uxxshgkgnzetfgtorllfzkbsrpivytnipmvygzgfdnyqib") (re.* re.allchar) (str.to_re "umiaoorpytcmqnb") re.allchar re.allchar (str.to_re "xmpythlitozsggkefeeylulphrhcytmpzbamyiz") re.allchar (str.to_re "rqbma") (re.* re.allchar) (str.to_re "uiaxslofzckxshxzxmwvdpmlogeg") re.allchar (str.to_re "ivevrnwmbmxolgpqcszvvkczqpgpzooftgzusghpbssbuqgdzwujrpcemzeuwwbcunsznmlwxarpfvhbsgawvlqlzy") re.allchar (str.to_re "srichpwowscthomjrqbu") re.allchar (str.to_re "rvdjuffkgzoyoam") (re.* re.allchar) (str.to_re "hs") (re.* re.allchar) (str.to_re "sal") (re.* re.allchar) (str.to_re "kvow") (re.* re.allchar) (str.to_re "wahgdbfjpdxzlzfwjjgnmqoeqpkdzm") (re.* re.allchar) (str.to_re "clpgbivngxtzozm") re.allchar (str.to_re "iuv") re.allchar (str.to_re "fglxekykgbasgkjxp") re.allchar (str.to_re "xuv") re.allchar (str.to_re "zsfowq") (re.* re.allchar) (str.to_re "novunew") (re.* re.allchar) (str.to_re "wxuykdb") re.allchar (str.to_re "k") (re.* re.allchar) (str.to_re "ksiuncoatmnhhkxlwv") (re.* re.allchar) (str.to_re "ibfij") (re.* re.allchar) (str.to_re "xbrtceyuigpfiya") (re.* re.allchar) (str.to_re "pogfl") (re.* re.allchar) (str.to_re "bcmyuxk") (re.* re.allchar) (str.to_re "naeguzplslibordjnxhbqxws") re.allchar (str.to_re "wijte") re.allchar (str.to_re "zx") (re.* re.allchar) (str.to_re "pcpyhajbr") (re.* re.allchar) (str.to_re "yprgyyzianyfmbmgaiq") (re.* re.allchar) (str.to_re "ksoee") re.allchar (str.to_re "i") (re.* re.allchar) re.allchar (str.to_re "cyviytwfdxuauqnepcwuwvkbxa") re.allchar (str.to_re "lba") (re.* re.allchar) (str.to_re "pskqjuhtkaugzjdlhepcshigeocbgk") re.allchar (str.to_re "sahvckekoprmqjuiqdaiygxnsdqckffrlnjurlkqzfxezgvgkvtpwr") (re.* re.allchar) (str.to_re "ocjvbpucszxcw") re.allchar (str.to_re "fzuegl") (re.* re.allchar) (str.to_re "nlhhphwxdwhwqd") (re.* re.allchar) (str.to_re "vjzaljull") (re.* re.allchar) (str.to_re "gngnqdyluwda") re.allchar re.allchar (re.* re.allchar) (str.to_re "s") (re.* re.allchar) (str.to_re "vlmpurgbrbqydhftrbzyuokxvrhdkrapbvtrxrbmznqyq") re.allchar (str.to_re "icrr") re.allchar (str.to_re "mmwmyplcwfx") (re.* re.allchar) (str.to_re "bpubmxyeglxmrtne") (re.* re.allchar) (str.to_re "gvmnncqefhiqprryxsvdccwkbipoxrvkghxbqfi") (re.* re.allchar) (str.to_re "xztcat") (re.* re.allchar) (str.to_re "tnqdlxl") (re.* re.allchar) (str.to_re "coayniwpwc") re.allchar (str.to_re "wrpiytecqurjpebs") (re.* re.allchar) (str.to_re "eelctobykfdkzzkbefdydhumnxoeqexxigjbpyhovylhmkopczx") (re.* re.allchar) (str.to_re "cjbkwllurm") re.allchar (str.to_re "muxvbqzmrcb") (re.* re.allchar) (str.to_re "iadvhfxeznvqciuifxyjxmj") (re.* re.allchar) (str.to_re "jqu") re.allchar (str.to_re "kbrtvdimisfctnnvergjhobywdpfqnith") (re.* re.allchar) (str.to_re "cwoopykvgrtsezqwkdlotklhqwrmoqpcihnjxvoiakfrjtssvdtdrwkdirwnjzlbharjdjqvszuabanvxstwrcghvdizkjacqte") re.allchar (str.to_re "yykkxwbh") (re.* re.allchar) (str.to_re "idhdwsrgxchaxqngc") (re.* re.allchar) re.allchar (str.to_re "jpbgwxywoeqeqwuemcxpbpwmrhyeqookomhtxoilbzaeivx") re.allchar (str.to_re "iwpognztcanrrndr") re.allchar (str.to_re "zvgnrqrhdrimagm") re.allchar (str.to_re "tbpsjhlckgnk") re.allchar (str.to_re "rbewgzxpxhnjzpclyiz") re.allchar re.allchar (str.to_re "xfjjbxe") re.allchar (str.to_re "cs") re.allchar (str.to_re "fvesqnwrottpvztzwcnwvj") (re.* re.allchar) (str.to_re "njmaucwwamhqtopbibrof") (re.* re.allchar) (str.to_re "tgkmgp") re.allchar (str.to_re "ikflzywdersiakwevyaknyxbfnslkvwryhjkunctgozwwp") (re.* re.allchar) (re.* re.allchar) (str.to_re "d") re.allchar (str.to_re "yhnitpejwmdadi") re.allchar (str.to_re "qebcwaikovpvifbmpwkyo") re.allchar (str.to_re "d") (re.* re.allchar) (re.* re.allchar) re.allchar (str.to_re "jarayngpleramfnio") re.allchar (str.to_re "mrushe") re.allchar (str.to_re "wlktobbnitqfxoi") re.allchar (str.to_re "vlemqplgu") (re.* re.allchar) (str.to_re "oyaedz") re.allchar (str.to_re "hkuzogwuuikggoneb") (re.* re.allchar) (str.to_re "esyhffib") re.allchar (str.to_re "qxmyftl") (re.* re.allchar) (str.to_re "b") re.allchar (str.to_re "vafxuy") )  )))
(check-sat)
(exit)
